Instance Name : rc205
Date : 2022-07-21
Solution
Route 1 : 2 45 7 14 47 16 15 11 12 78 73 79 6 8 46 5 3 1 4 100 70
Route 2 : 69 98 88 53 9 10 13 17 60
Route 3 : 42 39 36 44 40 38 41 43 35 37 54 93 96 80
Route 4 : 90 82 99 52 57 86 87 59 75 97 74
Route 5 : 65 83 64 19 23 21 18 76 85 84 51 49 22 24 20 89 48 25 77 58
Route 6 : 92 62 67 94 71 72 81 61 68 55
Route 7 : 95 63 33 30 27 29 31 28 26 32 34 50 56 91 66
